20956.7
20956.7
20956.7
20799.7
20569.8
20569.8
20569.8
20534.9
20534.9
20193.3
20193.3
20193.3
19804.9
19804.9
19804.9
19804.9
19658.1
19658.1
19658.1
19658.1
19658.1
19212.6
19212.6
19212.6
19212.6
19212.6
19212.6
19212.6
19082.5
19082.5
19082.5
19082.5
19082.5
19082.5
19010.6
19010.6
19010.6
19010.6
19010.6
19010.6
19010.6
19010.6
19010.6
19010.6
19010.6
19010.6
19010.6
19010.6
19010.6
19010.6
19010.6
19010.6
19010.6
19010.6
19010.6
19010.6
19010.6
19010.6
19010.6
19010.6
19010.6
19010.6
19010.6
19010.6
19010.6
19010.6
19010.6
19010.6
19010.6
19010.6
19010.6
19010.6
19010.6
19010.6
19010.6
19010.6
19010.6
19010.6
18916.8
18916.8
19010.6
19010.6
19010.6
19010.6
19010.6
19010.6
19010.6
19010.6
19010.6
19010.6
19010.6
19010.6
19010.6
19010.6
19010.6
19010.6
19010.6
19010.6
19010.6
19010.6
